Assets/LKHProbs~/skull.52.tsp
NAME : GeneratedProblem
COMMENT : SVGCrosshatch
TYPE : TSP
DIMENSION : 28
EDGE_WEIGHT_TYPE : EUC_2D
NODE_COORD_SECTION
1 6500 8900
2 6500 9000
3 6600 8700
4 6600 8800
5 6600 8900
6 6600 9000
7 6700 8500
8 6700 8600
9 6700 8700
10 6700 8800
11 6700 8900
12 6700 9000
13 6800 8400
14 6800 8500
15 6800 8600
16 6800 8700
17 6800 8800
18 6800 8900
19 6800 9000
20 6900 8600
21 6900 8700
22 6900 8800
23 6900 8900
24 6900 9000
25 7000 8800
26 7000 8900
27 7000 9000
28 7100 9000
EOF
