Assets/LKHProbs~/skull.52.out.txt
NAME : GeneratedProblem.2882.tour
COMMENT : Length = 2882
COMMENT : Found by LKH [Keld Helsgaun] Sun Nov 25 13:17:50 2018
TYPE : TOUR
DIMENSION : 28
TOUR_SECTION
1
2
6
12
19
24
27
28
26
25
22
23
18
11
10
17
16
21
20
15
14
13
7
8
9
3
4
5
-1
EOF
